<instance format="XCSP3" type="CSP">
  <variables>
    <array id="x" size="[90]"> 0 1 </array>
  </variables>
  <constraints>
    <group>
      <extension>
        <list> %... </list>
        <conflicts> (0,0,0,0,0,0,0,0,0) </conflicts>
      </extension>
      <args> x[8] x[7] x[6] x[5] x[4] x[3] x[2] x[1] x[0] </args>
      <args> x[17] x[16] x[15] x[14] x[13] x[12] x[11] x[10] x[9] </args>
      <args> x[26] x[25] x[24] x[23] x[22] x[21] x[20] x[19] x[18] </args>
      <args> x[35] x[34] x[33] x[32] x[31] x[30] x[29] x[28] x[27] </args>
      <args> x[44] x[43] x[42] x[41] x[40] x[39] x[38] x[37] x[36] </args>
      <args> x[53] x[52] x[51] x[50] x[49] x[48] x[47] x[46] x[45] </args>
      <args> x[62] x[61] x[60] x[59] x[58] x[57] x[56] x[55] x[54] </args>
      <args> x[71] x[70] x[69] x[68] x[67] x[66] x[65] x[64] x[63] </args>
      <args> x[80] x[79] x[78] x[77] x[76] x[75] x[74] x[73] x[72] </args>
      <args> x[89] x[88] x[87] x[86] x[85] x[84] x[83] x[82] x[81] </args>
    </group>
    <group>
      <extension>
        <list> %0 %1 </list>
        <conflicts> (1,1) </conflicts>
      </extension>
      <args> x[0] x[9] </args>
      <args> x[0] x[18] </args>
      <args> x[0] x[27] </args>
      <args> x[0] x[36] </args>
      <args> x[0] x[45] </args>
      <args> x[0] x[54] </args>
      <args> x[0] x[63] </args>
      <args> x[0] x[72] </args>
      <args> x[0] x[81] </args>
      <args> x[9] x[18] </args>
      <args> x[9] x[27] </args>
      <args> x[9] x[36] </args>
      <args> x[9] x[45] </args>
      <args> x[9] x[54] </args>
      <args> x[9] x[63] </args>
      <args> x[9] x[72] </args>
      <args> x[9] x[81] </args>
      <args> x[18] x[27] </args>
      <args> x[18] x[36] </args>
      <args> x[18] x[45] </args>
      <args> x[18] x[54] </args>
      <args> x[18] x[63] </args>
      <args> x[18] x[72] </args>
      <args> x[18] x[81] </args>
      <args> x[27] x[36] </args>
      <args> x[27] x[45] </args>
      <args> x[27] x[54] </args>
      <args> x[27] x[63] </args>
      <args> x[27] x[72] </args>
      <args> x[27] x[81] </args>
      <args> x[36] x[45] </args>
      <args> x[36] x[54] </args>
      <args> x[36] x[63] </args>
      <args> x[36] x[72] </args>
      <args> x[36] x[81] </args>
      <args> x[45] x[54] </args>
      <args> x[45] x[63] </args>
      <args> x[45] x[72] </args>
      <args> x[45] x[81] </args>
      <args> x[54] x[63] </args>
      <args> x[54] x[72] </args>
      <args> x[54] x[81] </args>
      <args> x[63] x[72] </args>
      <args> x[63] x[81] </args>
      <args> x[72] x[81] </args>
      <args> x[1] x[10] </args>
      <args> x[1] x[19] </args>
      <args> x[1] x[28] </args>
      <args> x[1] x[37] </args>
      <args> x[1] x[46] </args>
      <args> x[1] x[55] </args>
      <args> x[1] x[64] </args>
      <args> x[1] x[73] </args>
      <args> x[1] x[82] </args>
      <args> x[10] x[19] </args>
      <args> x[10] x[28] </args>
      <args> x[10] x[37] </args>
      <args> x[10] x[46] </args>
      <args> x[10] x[55] </args>
      <args> x[10] x[64] </args>
      <args> x[10] x[73] </args>
      <args> x[10] x[82] </args>
      <args> x[19] x[28] </args>
      <args> x[19] x[37] </args>
      <args> x[19] x[46] </args>
      <args> x[19] x[55] </args>
      <args> x[19] x[64] </args>
      <args> x[19] x[73] </args>
      <args> x[19] x[82] </args>
      <args> x[28] x[37] </args>
      <args> x[28] x[46] </args>
      <args> x[28] x[55] </args>
      <args> x[28] x[64] </args>
      <args> x[28] x[73] </args>
      <args> x[28] x[82] </args>
      <args> x[37] x[46] </args>
      <args> x[37] x[55] </args>
      <args> x[37] x[64] </args>
      <args> x[37] x[73] </args>
      <args> x[37] x[82] </args>
      <args> x[46] x[55] </args>
      <args> x[46] x[64] </args>
      <args> x[46] x[73] </args>
      <args> x[46] x[82] </args>
      <args> x[55] x[64] </args>
      <args> x[55] x[73] </args>
      <args> x[55] x[82] </args>
      <args> x[64] x[73] </args>
      <args> x[64] x[82] </args>
      <args> x[73] x[82] </args>
      <args> x[2] x[11] </args>
      <args> x[2] x[20] </args>
      <args> x[2] x[29] </args>
      <args> x[2] x[38] </args>
      <args> x[2] x[47] </args>
      <args> x[2] x[56] </args>
      <args> x[2] x[65] </args>
      <args> x[2] x[74] </args>
      <args> x[2] x[83] </args>
      <args> x[11] x[20] </args>
      <args> x[11] x[29] </args>
      <args> x[11] x[38] </args>
      <args> x[11] x[47] </args>
      <args> x[11] x[56] </args>
      <args> x[11] x[65] </args>
      <args> x[11] x[74] </args>
      <args> x[11] x[83] </args>
      <args> x[20] x[29] </args>
      <args> x[20] x[38] </args>
      <args> x[20] x[47] </args>
      <args> x[20] x[56] </args>
      <args> x[20] x[65] </args>
      <args> x[20] x[74] </args>
      <args> x[20] x[83] </args>
      <args> x[29] x[38] </args>
      <args> x[29] x[47] </args>
      <args> x[29] x[56] </args>
      <args> x[29] x[65] </args>
      <args> x[29] x[74] </args>
      <args> x[29] x[83] </args>
      <args> x[38] x[47] </args>
      <args> x[38] x[56] </args>
      <args> x[38] x[65] </args>
      <args> x[38] x[74] </args>
      <args> x[38] x[83] </args>
      <args> x[47] x[56] </args>
      <args> x[47] x[65] </args>
      <args> x[47] x[74] </args>
      <args> x[47] x[83] </args>
      <args> x[56] x[65] </args>
      <args> x[56] x[74] </args>
      <args> x[56] x[83] </args>
      <args> x[65] x[74] </args>
      <args> x[65] x[83] </args>
      <args> x[74] x[83] </args>
      <args> x[3] x[12] </args>
      <args> x[3] x[21] </args>
      <args> x[3] x[30] </args>
      <args> x[3] x[39] </args>
      <args> x[3] x[48] </args>
      <args> x[3] x[57] </args>
      <args> x[3] x[66] </args>
      <args> x[3] x[75] </args>
      <args> x[3] x[84] </args>
      <args> x[12] x[21] </args>
      <args> x[12] x[30] </args>
      <args> x[12] x[39] </args>
      <args> x[12] x[48] </args>
      <args> x[12] x[57] </args>
      <args> x[12] x[66] </args>
      <args> x[12] x[75] </args>
      <args> x[12] x[84] </args>
      <args> x[21] x[30] </args>
      <args> x[21] x[39] </args>
      <args> x[21] x[48] </args>
      <args> x[21] x[57] </args>
      <args> x[21] x[66] </args>
      <args> x[21] x[75] </args>
      <args> x[21] x[84] </args>
      <args> x[30] x[39] </args>
      <args> x[30] x[48] </args>
      <args> x[30] x[57] </args>
      <args> x[30] x[66] </args>
      <args> x[30] x[75] </args>
      <args> x[30] x[84] </args>
      <args> x[39] x[48] </args>
      <args> x[39] x[57] </args>
      <args> x[39] x[66] </args>
      <args> x[39] x[75] </args>
      <args> x[39] x[84] </args>
      <args> x[48] x[57] </args>
      <args> x[48] x[66] </args>
      <args> x[48] x[75] </args>
      <args> x[48] x[84] </args>
      <args> x[57] x[66] </args>
      <args> x[57] x[75] </args>
      <args> x[57] x[84] </args>
      <args> x[66] x[75] </args>
      <args> x[66] x[84] </args>
      <args> x[75] x[84] </args>
      <args> x[4] x[13] </args>
      <args> x[4] x[22] </args>
      <args> x[4] x[31] </args>
      <args> x[4] x[40] </args>
      <args> x[4] x[49] </args>
      <args> x[4] x[58] </args>
      <args> x[4] x[67] </args>
      <args> x[4] x[76] </args>
      <args> x[4] x[85] </args>
      <args> x[13] x[22] </args>
      <args> x[13] x[31] </args>
      <args> x[13] x[40] </args>
      <args> x[13] x[49] </args>
      <args> x[13] x[58] </args>
      <args> x[13] x[67] </args>
      <args> x[13] x[76] </args>
      <args> x[13] x[85] </args>
      <args> x[22] x[31] </args>
      <args> x[22] x[40] </args>
      <args> x[22] x[49] </args>
      <args> x[22] x[58] </args>
      <args> x[22] x[67] </args>
      <args> x[22] x[76] </args>
      <args> x[22] x[85] </args>
      <args> x[31] x[40] </args>
      <args> x[31] x[49] </args>
      <args> x[31] x[58] </args>
      <args> x[31] x[67] </args>
      <args> x[31] x[76] </args>
      <args> x[31] x[85] </args>
      <args> x[40] x[49] </args>
      <args> x[40] x[58] </args>
      <args> x[40] x[67] </args>
      <args> x[40] x[76] </args>
      <args> x[40] x[85] </args>
      <args> x[49] x[58] </args>
      <args> x[49] x[67] </args>
      <args> x[49] x[76] </args>
      <args> x[49] x[85] </args>
      <args> x[58] x[67] </args>
      <args> x[58] x[76] </args>
      <args> x[58] x[85] </args>
      <args> x[67] x[76] </args>
      <args> x[67] x[85] </args>
      <args> x[76] x[85] </args>
      <args> x[5] x[14] </args>
      <args> x[5] x[23] </args>
      <args> x[5] x[32] </args>
      <args> x[5] x[41] </args>
      <args> x[5] x[50] </args>
      <args> x[5] x[59] </args>
      <args> x[5] x[68] </args>
      <args> x[5] x[77] </args>
      <args> x[5] x[86] </args>
      <args> x[14] x[23] </args>
      <args> x[14] x[32] </args>
      <args> x[14] x[41] </args>
      <args> x[14] x[50] </args>
      <args> x[14] x[59] </args>
      <args> x[14] x[68] </args>
      <args> x[14] x[77] </args>
      <args> x[14] x[86] </args>
      <args> x[23] x[32] </args>
      <args> x[23] x[41] </args>
      <args> x[23] x[50] </args>
      <args> x[23] x[59] </args>
      <args> x[23] x[68] </args>
      <args> x[23] x[77] </args>
      <args> x[23] x[86] </args>
      <args> x[32] x[41] </args>
      <args> x[32] x[50] </args>
      <args> x[32] x[59] </args>
      <args> x[32] x[68] </args>
      <args> x[32] x[77] </args>
      <args> x[32] x[86] </args>
      <args> x[41] x[50] </args>
      <args> x[41] x[59] </args>
      <args> x[41] x[68] </args>
      <args> x[41] x[77] </args>
      <args> x[41] x[86] </args>
      <args> x[50] x[59] </args>
      <args> x[50] x[68] </args>
      <args> x[50] x[77] </args>
      <args> x[50] x[86] </args>
      <args> x[59] x[68] </args>
      <args> x[59] x[77] </args>
      <args> x[59] x[86] </args>
      <args> x[68] x[77] </args>
      <args> x[68] x[86] </args>
      <args> x[77] x[86] </args>
      <args> x[6] x[15] </args>
      <args> x[6] x[24] </args>
      <args> x[6] x[33] </args>
      <args> x[6] x[42] </args>
      <args> x[6] x[51] </args>
      <args> x[6] x[60] </args>
      <args> x[6] x[69] </args>
      <args> x[6] x[78] </args>
      <args> x[6] x[87] </args>
      <args> x[15] x[24] </args>
      <args> x[15] x[33] </args>
      <args> x[15] x[42] </args>
      <args> x[15] x[51] </args>
      <args> x[15] x[60] </args>
      <args> x[15] x[69] </args>
      <args> x[15] x[78] </args>
      <args> x[15] x[87] </args>
      <args> x[24] x[33] </args>
      <args> x[24] x[42] </args>
      <args> x[24] x[51] </args>
      <args> x[24] x[60] </args>
      <args> x[24] x[69] </args>
      <args> x[24] x[78] </args>
      <args> x[24] x[87] </args>
      <args> x[33] x[42] </args>
      <args> x[33] x[51] </args>
      <args> x[33] x[60] </args>
      <args> x[33] x[69] </args>
      <args> x[33] x[78] </args>
      <args> x[33] x[87] </args>
      <args> x[42] x[51] </args>
      <args> x[42] x[60] </args>
      <args> x[42] x[69] </args>
      <args> x[42] x[78] </args>
      <args> x[42] x[87] </args>
      <args> x[51] x[60] </args>
      <args> x[51] x[69] </args>
      <args> x[51] x[78] </args>
      <args> x[51] x[87] </args>
      <args> x[60] x[69] </args>
      <args> x[60] x[78] </args>
      <args> x[60] x[87] </args>
      <args> x[69] x[78] </args>
      <args> x[69] x[87] </args>
      <args> x[78] x[87] </args>
      <args> x[7] x[16] </args>
      <args> x[7] x[25] </args>
      <args> x[7] x[34] </args>
      <args> x[7] x[43] </args>
      <args> x[7] x[52] </args>
      <args> x[7] x[61] </args>
      <args> x[7] x[70] </args>
      <args> x[7] x[79] </args>
      <args> x[7] x[88] </args>
      <args> x[16] x[25] </args>
      <args> x[16] x[34] </args>
      <args> x[16] x[43] </args>
      <args> x[16] x[52] </args>
      <args> x[16] x[61] </args>
      <args> x[16] x[70] </args>
      <args> x[16] x[79] </args>
      <args> x[16] x[88] </args>
      <args> x[25] x[34] </args>
      <args> x[25] x[43] </args>
      <args> x[25] x[52] </args>
      <args> x[25] x[61] </args>
      <args> x[25] x[70] </args>
      <args> x[25] x[79] </args>
      <args> x[25] x[88] </args>
      <args> x[34] x[43] </args>
      <args> x[34] x[52] </args>
      <args> x[34] x[61] </args>
      <args> x[34] x[70] </args>
      <args> x[34] x[79] </args>
      <args> x[34] x[88] </args>
      <args> x[43] x[52] </args>
      <args> x[43] x[61] </args>
      <args> x[43] x[70] </args>
      <args> x[43] x[79] </args>
      <args> x[43] x[88] </args>
      <args> x[52] x[61] </args>
      <args> x[52] x[70] </args>
      <args> x[52] x[79] </args>
      <args> x[52] x[88] </args>
      <args> x[61] x[70] </args>
      <args> x[61] x[79] </args>
      <args> x[61] x[88] </args>
      <args> x[70] x[79] </args>
      <args> x[70] x[88] </args>
      <args> x[79] x[88] </args>
      <args> x[8] x[17] </args>
      <args> x[8] x[26] </args>
      <args> x[8] x[35] </args>
      <args> x[8] x[44] </args>
      <args> x[8] x[53] </args>
      <args> x[8] x[62] </args>
      <args> x[8] x[71] </args>
      <args> x[8] x[80] </args>
      <args> x[8] x[89] </args>
      <args> x[17] x[26] </args>
      <args> x[17] x[35] </args>
      <args> x[17] x[44] </args>
      <args> x[17] x[53] </args>
      <args> x[17] x[62] </args>
      <args> x[17] x[71] </args>
      <args> x[17] x[80] </args>
      <args> x[17] x[89] </args>
      <args> x[26] x[35] </args>
      <args> x[26] x[44] </args>
      <args> x[26] x[53] </args>
      <args> x[26] x[62] </args>
      <args> x[26] x[71] </args>
      <args> x[26] x[80] </args>
      <args> x[26] x[89] </args>
      <args> x[35] x[44] </args>
      <args> x[35] x[53] </args>
      <args> x[35] x[62] </args>
      <args> x[35] x[71] </args>
      <args> x[35] x[80] </args>
      <args> x[35] x[89] </args>
      <args> x[44] x[53] </args>
      <args> x[44] x[62] </args>
      <args> x[44] x[71] </args>
      <args> x[44] x[80] </args>
      <args> x[44] x[89] </args>
      <args> x[53] x[62] </args>
      <args> x[53] x[71] </args>
      <args> x[53] x[80] </args>
      <args> x[53] x[89] </args>
      <args> x[62] x[71] </args>
      <args> x[62] x[80] </args>
      <args> x[62] x[89] </args>
      <args> x[71] x[80] </args>
      <args> x[71] x[89] </args>
      <args> x[80] x[89] </args>
    </group>
  </constraints>
</instance>
